5871
9422
8535
5655
7853
2442
6480
780
4035
9310
965
5231
6052
523
2833
7617
6198
8707
5594
9386
2112
3021
8832
5420
7077
4604
8992
9528
1314
4825
3323
7398
773
6972
3962
5549
1828
6618
8386
4871
7239
2278
4185
3658
421
1032
5933
6621
7266
1618
